sat
(
  (define-fun C2_VM1 () Int
    0)
  (define-fun C3_VM5 () Int
    1)
  (define-fun MemProv5 () Int
    30500)
  (define-fun C2_VM5 () Int
    0)
  (define-fun MemProv4 () Int
    3750)
  (define-fun MemProv2 () Int
    3750)
  (define-fun MemProv3 () Int
    15000)
  (define-fun StorageProv1 () Int
    1000)
  (define-fun C5_VM2 () Int
    0)
  (define-fun C3_VM3 () Int
    0)
  (define-fun C1_VM5 () Int
    0)
  (define-fun PriceProv3 () Int
    402)
  (define-fun C2_VM4 () Int
    1)
  (define-fun C5_VM4 () Int
    0)
  (define-fun C4_VM5 () Int
    0)
  (define-fun C4_VM3 () Int
    0)
  (define-fun C5_VM5 () Int
    0)
  (define-fun ProcProv2 () Int
    2)
  (define-fun VM2Type () Int
    17)
  (define-fun C3_VM2 () Int
    0)
  (define-fun StorageProv5 () Int
    1000)
  (define-fun StorageProv3 () Int
    2000)
  (define-fun MemProv1 () Int
    30500)
  (define-fun C3_VM1 () Int
    0)
  (define-fun StorageProv4 () Int
    2000)
  (define-fun PriceProv1 () Int
    379)
  (define-fun StorageProv2 () Int
    2000)
  (define-fun VM4Type () Int
    17)
  (define-fun ProcProv4 () Int
    2)
  (define-fun C1_VM4 () Int
    0)
  (define-fun VM5Type () Int
    15)
  (define-fun C4_VM2 () Int
    1)
  (define-fun C1_VM2 () Int
    0)
  (define-fun VM1Type () Int
    15)
  (define-fun ProcProv3 () Int
    4)
  (define-fun C4_VM1 () Int
    0)
  (define-fun C5_VM3 () Int
    0)
  (define-fun PriceProv5 () Int
    379)
  (define-fun PriceProv4 () Int
    128)
  (define-fun ProcProv5 () Int
    4)
  (define-fun C2_VM2 () Int
    0)
  (define-fun ProcProv1 () Int
    4)
  (define-fun C3_VM4 () Int
    0)
  (define-fun C4_VM4 () Int
    0)
  (define-fun PriceProv2 () Int
    128)
  (define-fun C2_VM3 () Int
    0)
  (define-fun C1_VM3 () Int
    1)
  (define-fun VM3Type () Int
    13)
  (define-fun C5_VM1 () Int
    1)
  (define-fun C1_VM1 () Int
    0)
)
(objectives
 ((+ 0 PriceProv1 PriceProv2 PriceProv3 PriceProv4 PriceProv5) 1416)
)
(:added-eqs                   109890
 :arith-eq-adapter            5010
 :arith-bound-propagations-lp 66458
 :arith-conflicts             488
 :arith-diseq                 166705
 :arith-fixed-eqs             1801
 :arith-lower                 222926
 :arith-make-feasible         14375
 :arith-max-columns           112
 :arith-max-rows              17
 :arith-upper                 130271
 :binary-propagations         505247
 :conflicts                   2976
 :decisions                   17224
 :del-clause                  9149
 :final-checks                89
 :max-memory                  40.44
 :memory                      40.44
 :minimized-lits              40629
 :mk-bool-var                 10753
 :mk-clause                   9787
 :mk-clause-binary            2202
 :num-allocs                  17645084
 :num-checks                  71
 :pb-conflicts                473
 :pb-predicates               184
 :pb-propagations             6500
 :pb-resolves                 469
 :propagations                890674
 :restarts                    22
 :rlimit-count                5115396
 :solve-eqs-elim-vars         2
 :solve-eqs-steps             16
 :time                        0.28
 :total-time                  0.29)
